
Gurobi 8.0.0 (win64, Python) logging started 12/19/18 18:56:05

Academic license - for non-commercial use only
Freed default Gurobi environment

Gurobi 8.0.0 (win64, Python) logging started 12/19/18 18:56:26

Academic license - for non-commercial use only

Gurobi 8.0.0 (win64, Python) logging started 12/19/18 18:56:40

Academic license - for non-commercial use only

Gurobi 8.0.0 (win64, Python) logging started 12/19/18 18:56:55

Academic license - for non-commercial use only
Freed default Gurobi environment

Gurobi 8.0.0 (win64, Python) logging started 12/19/18 18:58:19

Academic license - for non-commercial use only
Freed default Gurobi environment

Gurobi 8.0.0 (win64, Python) logging started 12/19/18 18:58:57

Academic license - for non-commercial use only
Freed default Gurobi environment

Gurobi 8.0.0 (win64, Python) logging started 12/19/18 19:10:07

Academic license - for non-commercial use only

Gurobi 8.0.0 (win64, Python) logging started 12/19/18 19:10:23

Academic license - for non-commercial use only
Freed default Gurobi environment

Gurobi 8.0.0 (win64, Python) logging started 12/19/18 19:10:56

Academic license - for non-commercial use only
Freed default Gurobi environment

Gurobi 8.0.0 (win64, Python) logging started 12/19/18 19:14:29

Academic license - for non-commercial use only
Freed default Gurobi environment

Gurobi 8.0.0 (win64, Python) logging started 12/19/18 19:15:26

Academic license - for non-commercial use only

Gurobi 8.0.0 (win64, Python) logging started 12/19/18 19:15:45

Academic license - for non-commercial use only

Gurobi 8.0.0 (win64, Python) logging started 12/19/18 19:18:19

Academic license - for non-commercial use only
Freed default Gurobi environment

Gurobi 8.0.0 (win64, Python) logging started 12/19/18 19:20:42

Academic license - for non-commercial use only

Gurobi 8.0.0 (win64, Python) logging started 12/19/18 19:21:11

Academic license - for non-commercial use only
Freed default Gurobi environment

Gurobi 8.0.0 (win64, Python) logging started 12/19/18 19:22:57

Academic license - for non-commercial use only
Freed default Gurobi environment

Gurobi 8.0.0 (win64, Python) logging started 12/19/18 19:29:20

Academic license - for non-commercial use only
Freed default Gurobi environment

Gurobi 8.0.0 (win64, Python) logging started 12/19/18 19:44:35

Academic license - for non-commercial use only

Gurobi 8.0.0 (win64, Python) logging started 12/19/18 19:44:50

Academic license - for non-commercial use only

Gurobi 8.0.0 (win64, Python) logging started 12/19/18 19:47:06

Academic license - for non-commercial use only
Optimize a model with 356 rows, 175 columns and 805 nonzeros
Variable types: 0 continuous, 175 integer (175 binary)
Coefficient statistics:
  Matrix range     [1e+00, 1e+00]
  Objective range  [1e+00, 1e+00]
  Bounds range     [1e+00, 1e+00]
  RHS range        [1e+00, 2e+01]
Found heuristic solution: objective -0.0000000
Presolve removed 356 rows and 175 columns
Presolve time: 0.00s
Presolve: All rows and columns removed

Explored 0 nodes (0 simplex iterations) in 0.00 seconds
Thread count was 1 (of 4 available processors)

Solution count 2: 4 -0 

Optimal solution found (tolerance 1.00e-04)
Best objective 4.000000000000e+00, best bound 4.000000000000e+00, gap 0.0000%
Freed default Gurobi environment

Gurobi 8.0.0 (win64, Python) logging started 12/19/18 19:47:13

Academic license - for non-commercial use only

Gurobi 8.0.0 (win64, Python) logging started 12/19/18 19:47:40

Academic license - for non-commercial use only
Freed default Gurobi environment
